1
300
100
77 95
53 50
30 11
95 100
73 73
18 19
19 60
99 52
12 83
49 76
30 87
13 3
84 48
68 77
19 79
26 76
11 24
31 11
73 60
60 26
48 99
26 99
15 84
72 42
85 95
76 98
1 41
49 46
42 68
36 96
20 53
15 94
77 7
96 16
93 75
24 74
78 34
77 12
77 96
66 9
67 5
35 75
60 39
63 54
100 9
60 25
64 59
70 99
65 67
72 20
46 45
76 65
85 36
28 47
93 19
4 8
15 4
16 28
29 37
9 18
45 94
60 20
8 87
80 15
96 60
14 12
20 92
39 56
25 93
67 25
87 7
41 29
19 13
41 15
64 22
77 58
1 78
93 70
41 58
67 97
27 75
10 14
38 71
67 35
86 26
16 2
13 51
67 94
99 88
65 22
54 18
88 31
23 50
47 97
83 29
86 33
46 33
84 83
56 72
50 24
